experiment/data/lkh-res/Vrp-Set-E-n22/Vrp-Set-E-n22-lkh/0.lkh1.vrp
NAME : 0
COMMENT : CVRP Instance
TYPE : CVRP
DIMENSION : 22
EDGE_WEIGHT_TYPE : EUC_2D
CAPACITY : 6000
NODE_COORD_SECTION
1	14500	21500
2	15100	26400
3	15900	26100
4	13000	25400
5	12800	25200
6	16300	24700
7	14600	24600
8	16100	24200
9	14200	23900
10	16300	23600
11	14800	23200
12	12800	23100
13	15600	21700
14	12900	21400
15	14600	20800
16	16400	20800
17	14100	20600
18	14700	19300
19	16400	19300
20	12900	18900
21	15500	18500
22	13900	18200
DEMAND_SECTION
1	0
2	1100
3	700
4	800
5	1400
6	2100
7	400
8	800
9	100
10	500
11	600
12	1200
13	1300
14	1300
15	300
16	900
17	2100
18	1000
19	900
20	2500
21	1800
22	700
DEPOT_SECTION
1
-1
EOF
